p cnf 162 194
c ind 67 68 69 70 0
c ind 71 72 73 74 75 76 77 78 79 80 0
c ind 81 82 83 84 85 86 87 88 89 90 0
c ind 91 92 93 94 95 96 97 98 99 100 0
c ind 101 102 103 104 105 106 107 108 109 110 0
c ind 111 112 113 114 115 116 117 118 119 120 0
c ind 121 122 123 124 125 126 127 128 129 130 0
c ind 131 132 133 134 135 136 137 138 139 140 0
c ind 141 142 143 144 145 146 147 148 149 150 0
c ind 151 152 153 154 155 156 157 158 159 160 0
c ind 161 162 0
43 0
-66 0
-1 -67 3 0
1 -67 -3 0
-1 -68 7 0
1 -68 -7 0
-1 -69 8 0
1 -69 -8 0
-1 -70 40 0
1 -70 -40 0
-1 -71 41 0
1 -71 -41 0
-1 -72 56 0
1 -72 -56 0
-2 -73 58 0
2 -73 -58 0
-2 -74 65 0
2 -74 -65 0
-3 -75 43 0
3 -75 -43 0
-4 -76 7 0
4 -76 -7 0
-4 -77 9 0
4 -77 -9 0
-4 -78 10 0
4 -78 -10 0
-4 -79 11 0
4 -79 -11 0
-4 -80 13 0
4 -80 -13 0
-4 -81 14 0
4 -81 -14 0
-4 -82 17 0
4 -82 -17 0
-4 -83 20 0
4 -83 -20 0
-4 -84 21 0
4 -84 -21 0
-4 -85 26 0
4 -85 -26 0
-4 -86 64 0
4 -86 -64 0
-5 -87 52 0
5 -87 -52 0
-6 -88 9 0
6 -88 -9 0
-6 -89 10 0
6 -89 -10 0
-6 -90 59 0
6 -90 -59 0
-6 -91 65 0
6 -91 -65 0
-7 -92 34 0
7 -92 -34 0
-7 -93 37 0
7 -93 -37 0
-7 -94 40 0
7 -94 -40 0
-8 -95 43 0
8 -95 -43 0
-8 -96 56 0
8 -96 -56 0
-9 -97 10 0
9 -97 -10 0
-9 -98 18 0
9 -98 -18 0
-9 -99 19 0
9 -99 -19 0
-9 -100 20 0
9 -100 -20 0
-9 -101 22 0
9 -101 -22 0
-9 -102 23 0
9 -102 -23 0
-9 -103 45 0
9 -103 -45 0
-9 -104 49 0
9 -104 -49 0
-9 -105 50 0
9 -105 -50 0
-9 -106 59 0
9 -106 -59 0
-10 -107 39 0
10 -107 -39 0
-10 -108 45 0
10 -108 -45 0
-10 -109 58 0
10 -109 -58 0
-11 -110 12 0
11 -110 -12 0
-14 -111 16 0
14 -111 -16 0
-15 -112 16 0
15 -112 -16 0
-15 -113 27 0
15 -113 -27 0
-17 -114 27 0
17 -114 -27 0
-18 -115 23 0
18 -115 -23 0
-19 -116 23 0
19 -116 -23 0
-21 -117 22 0
21 -117 -22 0
-23 -118 24 0
23 -118 -24 0
-23 -119 27 0
23 -119 -27 0
-24 -120 30 0
24 -120 -30 0
-25 -121 27 0
25 -121 -27 0
-25 -122 31 0
25 -122 -31 0
-26 -123 27 0
26 -123 -27 0
-27 -124 30 0
27 -124 -30 0
-27 -125 38 0
27 -125 -38 0
-27 -126 56 0
27 -126 -56 0
-28 -127 29 0
28 -127 -29 0
-28 -128 30 0
28 -128 -30 0
-28 -129 56 0
28 -129 -56 0
-31 -130 32 0
31 -130 -32 0
-32 -131 56 0
32 -131 -56 0
-33 -132 41 0
33 -132 -41 0
-33 -133 56 0
33 -133 -56 0
-34 -134 35 0
34 -134 -35 0
-34 -135 36 0
34 -135 -36 0
-35 -136 36 0
35 -136 -36 0
-36 -137 38 0
36 -137 -38 0
-37 -138 38 0
37 -138 -38 0
-42 -139 43 0
42 -139 -43 0
-42 -140 56 0
42 -140 -56 0
-44 -141 49 0
44 -141 -49 0
-46 -142 47 0
46 -142 -47 0
-47 -143 50 0
47 -143 -50 0
-47 -144 60 0
47 -144 -60 0
-48 -145 49 0
48 -145 -49 0
-49 -146 59 0
49 -146 -59 0
-51 -147 52 0
51 -147 -52 0
-52 -148 54 0
52 -148 -54 0
-53 -149 54 0
53 -149 -54 0
-53 -150 56 0
53 -150 -56 0
-54 -151 60 0
54 -151 -60 0
-55 -152 56 0
55 -152 -56 0
-55 -153 57 0
55 -153 -57 0
-56 -154 57 0
56 -154 -57 0
-59 -155 60 0
59 -155 -60 0
-59 -156 64 0
59 -156 -64 0
-60 -157 61 0
60 -157 -61 0
-61 -158 63 0
61 -158 -63 0
-62 -159 66 0
62 -159 -66 0
-63 -160 66 0
63 -160 -66 0
-64 -161 65 0
64 -161 -65 0
-65 -162 66 0
65 -162 -66 0
